\* Problem: Unknown *\

Maximize
 obj: + xp_0_0 + xp_0_1 + xp_0_2 + xp_0_3 + xp_0_4 + xp_0_5 + xp_0_6
 + xp_0_7 + xp_1_0 + xp_1_1 + xp_2_0 + xp_2_1 + xp_2_2 + xp_2_3 + xp_3_0
 + xp_3_1 + xp_3_2 + xp_4_0 + xp_5_0 + xp_5_1 + xp_5_2 + xp_6_0 + xp_6_1
 + xp_7_0 + xp_7_1 + xp_8_0 + xp_9_0 + xp_10_0 + xp_11_0 + xp_11_1
 + xp_11_2 + xp_11_3 + xp_11_4 + xp_12_0 + xp_13_0 + xp_13_1 + xp_14_0
 + xp_14_1 + xp_15_0 + xp_16_0 + xp_16_1 + xp_17_0 + xp_17_1 + xp_17_2
 + xp_18_0 + xp_18_1 + xp_18_2 + xp_18_3 + xp_18_4 + xp_19_0 + xp_19_1
 + xp_19_2 + xp_19_3 + xp_20_0 + xp_20_1 + xp_20_2 + xp_20_3 + xp_21_0
 + xp_21_1 + xp_21_2 + xp_21_3 + xp_21_4 + xp_22_0 + xp_22_1 + xp_22_2
 + xp_22_3 + xp_22_4 + xp_22_5 + xp_23_0 + xp_23_1 + xp_23_2 + xp_23_3
 + xp_23_4

Subject To
 r_1: 0 xp_0_0 <= 26.0136785539814
 r_2: + xp_22_4 + xp_18_4 + xp_5_1 + xp_2_2 <= 25.8704453441296
 r_3: + xp_18_3 + xp_17_2 + xp_0_4 <= 26.5090230242688
 r_4: + xp_18_2 + xp_15_0 <= 28.3056478405316
 r_5: + xp_18_0 + xp_0_7 <= 25.5507088331516
 r_6: + xp_18_1 <= 26.3893805309735
 r_7: + xp_20_3 <= 26.0136785539814
 r_8: + xp_23_4 + xp_22_5 + xp_11_3 + xp_3_2 + xp_2_1
 <= 25.8704453441296
 r_9: + xp_23_3 + xp_11_1 + xp_6_1 + xp_3_1 <= 26.5090230242688
 r_10: + xp_11_4 + xp_3_0 <= 28.3056478405316
 r_11: + xp_18_1 + xp_11_2 <= 25.5507088331516
 r_12: + xp_11_0 <= 26.3893805309735
 r_13: + xp_5_2 <= 27.941473259334
 r_14: + xp_21_3 + xp_19_1 + xp_14_0 + xp_0_6 + xp_0_1
 <= 25.8704453441296
 r_15: + xp_21_0 + xp_19_3 <= 26.5090230242688
 r_16: + xp_22_2 + xp_21_1 + xp_0_5 + xp_0_2 <= 27.3778920308483
 r_17: + xp_0_0 <= 25.5507088331516
 r_18: + xp_4_0 + xp_0_7 + xp_0_4 <= 26.0136785539814
 r_19: + xp_19_0 <= 26.0136785539814
 r_20: + xp_21_4 + xp_21_2 + xp_19_2 + xp_14_1 + xp_0_3
 <= 27.941473259334
 r_21: + xp_20_1 <= 25.8704453441296
 r_22: + xp_21_4 + xp_21_3 + xp_7_1 <= 26.5090230242688
 r_23: + xp_22_5 + xp_22_4 + xp_22_3 <= 27.3778920308483
 r_24: + xp_23_4 + xp_23_2 + xp_3_2 + xp_0_6 <= 26.3893805309735
 r_25: 0 xp_0_0 <= 27.941473259334
 r_26: + xp_18_4 + xp_0_3 + xp_0_1 <= 25.5507088331516
 r_27: + xp_11_3 <= 25.8704453441296
 r_28: + xp_19_1 <= 25.8704453441296
 r_29: + xp_20_2 <= 26.5090230242688
 r_30: + xp_2_0 <= 26.5090230242688
 r_31: + xp_23_3 + xp_18_3 + xp_17_2 + xp_6_1 + xp_3_1 + xp_2_3 + xp_0_4
 <= 26.3893805309735
 r_32: 0 xp_0_0 <= 27.941473259334
 r_33: + xp_11_1 + xp_2_2 <= 26.5090230242688
 r_34: + xp_19_3 + xp_2_1 <= 26.5090230242688
 r_35: 0 xp_0_0 <= 27.3778920308483
 r_36: + xp_9_0 <= 27.3778920308483
 r_37: + xp_21_1 + xp_13_1 + xp_0_5 <= 26.3893805309735
 r_38: + xp_1_1 <= 28.7484662576687
 r_39: + xp_17_1 <= 28.3056478405316
 r_40: + xp_0_2 <= 25.5507088331516
 r_41: + xp_12_0 + xp_2_3 <= 26.3893805309735
 r_42: + xp_21_1 <= 26.3893805309735
 r_43: + xp_16_0 <= 26.3893805309735
 r_44: + xp_23_4 + xp_23_3 + xp_23_2 + xp_23_1 + xp_16_1
 <= 28.7484662576687
 r_45: + xp_17_2 + xp_3_2 + xp_3_1 <= 28.3056478405316
 r_46: + xp_18_3 + xp_0_6 + xp_0_5 + xp_0_4 <= 25.5507088331516
 r_47: + xp_22_1 + xp_16_1 + xp_13_1 <= 28.7484662576687
 r_48: + xp_13_0 <= 28.7484662576687
 r_49: 0 xp_0_0 <= 28.3056478405316
 r_50: 0 xp_0_0 <= 25.5507088331516
 r_51: + xp_1_1 <= 28.3056478405316
 r_52: + xp_8_0 <= 28.3056478405316
 r_53: + xp_1_0 <= 28.3056478405316
 r_54: + xp_18_2 <= 25.5507088331516
 r_55: + xp_11_4 <= 28.3056478405316
 r_56: 0 xp_0_0 <= 28.3056478405316
 r_57: + xp_22_2 <= 25.5507088331516
 r_58: + xp_23_2 + xp_22_3 + xp_5_0 <= 25.5507088331516
 r_59: + xp_22_0 + xp_17_1 <= 25.5507088331516
 r_60: + xp_23_1 + xp_6_0 <= 25.5507088331516
 r_61: + xp_23_0 + xp_22_1 <= 25.5507088331516
 r_62: + xp_17_0 <= 25.5507088331516
 r_63: + xp_22_4 + xp_17_2 + xp_11_2 + xp_5_1 <= 25.5507088331516
 r_64: + xp_23_4 + xp_23_3 + xp_22_5 + xp_6_1 + xp_5_2
 <= 25.5507088331516
 r_65: + xp_21_4 + xp_20_1 + xp_14_1 + xp_7_1 + xp_5_2 + xp_0_3
 <= 27.941473259334
 r_66: + xp_21_2 + xp_20_2 + xp_7_0 <= 27.941473259334
 r_67: + xp_20_3 + xp_19_2 + xp_10_0 <= 27.941473259334
 r_68: + xp_20_0 <= 27.941473259334

Bounds
 0 <= xp_0_0 <= 27.6315803310255
 0 <= xp_0_1 <= 5.72367648510759
 0 <= xp_0_2 <= 14.4868380234748
 0 <= xp_0_3 <= 4.38158076918358
 0 <= xp_0_4 <= 1.34209571592401
 0 <= xp_0_5 <= 1.34209571592401
 0 <= xp_0_6 <= 4.38158076918358
 0 <= xp_0_7 <= 1.34209571592401
 0 <= xp_1_0 <= 18.2499849565727
 0 <= xp_1_1 <= 15.6973636320617
 0 <= xp_2_0 <= 23.1052671858742
 0 <= xp_2_1 <= 5.57894410913992
 0 <= xp_2_2 <= 3.59209001986901
 0 <= xp_2_3 <= 1.19736333995634
 0 <= xp_3_0 <= 23.5131573028391
 0 <= xp_3_1 <= 2.40788018538176
 0 <= xp_3_2 <= 5.18420749764417
 0 <= xp_4_0 <= 25.2631431357279
 0 <= xp_5_0 <= 12.631571567864
 0 <= xp_5_1 <= 8.42104771190931
 0 <= xp_5_2 <= 4.21052385595466
 0 <= xp_6_0 <= 18.947357351796
 0 <= xp_6_1 <= 3.78947147035919
 0 <= xp_7_0 <= 18.1578841288045
 0 <= xp_7_1 <= 3.63157682576089
 0 <= xp_8_0 <= 19.5789359301891
 0 <= xp_9_0 <= 18.1578841288045
 0 <= xp_10_0 <= 18.1578841288045
 0 <= xp_11_0 <= 26.2894846151015
 0 <= xp_11_1 <= 14.7763027754101
 0 <= xp_11_2 <= 8.76316153836716
 0 <= xp_11_3 <= 6.82892147097261
 0 <= xp_11_4 <= 0.815780233929676
 0 <= xp_12_0 <= 17.0526216166164
 0 <= xp_13_0 <= 13.8157814023512
 0 <= xp_13_1 <= 2.76315628047024
 0 <= xp_14_0 <= 10.5263096398866
 0 <= xp_14_1 <= 5.26315481994332
 0 <= xp_15_0 <= 15.6315698152317
 0 <= xp_16_0 <= 12.4999926973654
 0 <= xp_16_1 <= 2.49999853947308
 0 <= xp_17_0 <= 26.3289363683472
 0 <= xp_17_1 <= 13.1841940607965
 0 <= xp_17_2 <= 4.38158076918358
 0 <= xp_18_0 <= 19.2368221037313
 0 <= xp_18_1 <= 13.1447423075507
 0 <= xp_18_2 <= 2.61841514134103
 0 <= xp_18_3 <= 4.38158076918358
 0 <= xp_18_4 <= 2.61841514134103
 0 <= xp_19_0 <= 26.9868394840017
 0 <= xp_19_1 <= 2.53946781904188
 0 <= xp_19_2 <= 2.53946781904188
 0 <= xp_19_3 <= 9.46051640726735
 0 <= xp_20_0 <= 26.7236817430045
 0 <= xp_20_1 <= 6.78946971772688
 0 <= xp_20_2 <= 2.4078889485433
 0 <= xp_20_3 <= 4.8157778970866
 0 <= xp_21_0 <= 19.49998860789
 0 <= xp_21_1 <= 6.49999620263
 0 <= xp_21_2 <= 4.23683086689283
 0 <= xp_21_3 <= 4.38158076918358
 0 <= xp_21_4 <= 4.38158076918358
 0 <= xp_22_0 <= 12.4736769232657
 0 <= xp_22_1 <= 4.38158076918358
 0 <= xp_22_2 <= 3.7105153848985
 0 <= xp_22_3 <= 10.6184192308164
 0 <= xp_22_4 <= 1.85525769244925
 0 <= xp_22_5 <= 4.38158076918358
 0 <= xp_23_0 <= 25.6184192308164
 0 <= xp_23_1 <= 6.23683846163283
 0 <= xp_23_2 <= 1.85525769244925
 0 <= xp_23_3 <= 1.85525769244925
 0 <= xp_23_4 <= 1.85525769244925

End
